NAME : LKH/problem_files/LocalTSPInstance4.10435694.tour
COMMENT : Length = 10435694
COMMENT : Found by LKH [Keld Helsgaun] Fri Jul  2 10:45:51 2021
TYPE : TOUR
DIMENSION : 161
TOUR_SECTION
1
32
3
2
4
6
8
9
7
5
33
35
37
38
36
34
65
63
61
62
64
66
92
90
88
89
91
93
95
94
68
67
40
39
11
10
13
12
17
15
14
16
45
43
44
46
41
42
69
70
74
72
71
73
100
98
99
101
96
97
113
114
115
117
116
103
102
76
75
48
47
19
18
23
22
20
21
49
51
50
52
77
79
78
80
104
106
105
107
118
120
121
119
123
122
109
108
82
81
54
53
25
24
134
135
137
136
131
130
127
128
132
160
157
142
143
144
138
154
153
152
151
150
149
148
147
146
145
141
140
139
156
158
161
159
133
129
155
112
87
86
85
60
58
57
59
30
28
29
31
26
27
55
56
83
84
110
111
124
125
126
-1
EOF
